p edge 18 31
e 1 15
e 2 15
e 2 5
e 2 14
e 3 7
e 3 11
e 3 8
e 3 13
e 3 9
e 3 16
e 4 6
e 4 12
e 5 15
e 5 18
e 6 16
e 6 13
e 6 12
e 7 8
e 7 18
e 7 13
e 8 18
e 9 17
e 9 13
e 10 17
e 10 14
e 10 15
e 10 18
e 11 17
e 13 16
e 13 18
e 15 17
